c User generated cnf file
p cnf 15 57
12 -8 13 0 
12 9 -9 0 
2 12 -2 0 
7 -11 7 0 
2 -9 4 0 
14 6 -1 0 
14 -11 12 0 
2 11 -9 0 
12 13 -5 0 
4 7 -4 0 
7 -14 11 0 
11 13 -4 0 
5 -11 11 0 
7 -11 3 0 
3 -3 1 0 
7 -5 4 0 
3 -8 7 0 
13 3 -10 0 
4 7 -8 0 
11 11 -13 0 
2 -15 3 0 
9 12 -1 0 
5 1 -1 0 
12 -13 15 0 
11 -9 11 0 
7 8 -15 0 
6 8 -15 0 
13 -15 14 0 
14 1 -10 0 
9 -11 5 0 
11 -13 12 0 
9 -5 7 0 
8 -15 7 0 
5 11 -14 0 
6 9 -4 0 
9 -14 15 0 
1 -8 10 0 
7 4 -4 0 
11 6 -4 0 
11 -14 3 0 
2 15 -12 0 
5 14 -2 0 
8 -2 5 0 
13 -2 9 0 
15 15 -4 0 
10 11 -3 0 
10 7 -10 0 
3 -6 10 0 
12 -13 13 0 
8 6 -3 0 
10 -14 14 0 
15 1 -3 0 
6 5 -12 0 
1 -1 12 0 
6 -8 10 0 
3 8 -9 0 
8 14 -9 0 
